&control
    calculation = 'bands'
    prefix      = 'Pt'
    outdir      = './temp/'
    pseudo_dir  = './'
    verbosity   = 'high'
    disk_io = 'nowf'
/
&system
    ibrav       = 2
    celldm(1)   = 7.3926
    nat         = 1
    ntyp        = 1
    ecutwfc     = 60.0
    occupations = 'smearing'
    degauss     = 0.03
    noncolin    = .true.
    lspinorb    = .true.
    nbnd = 24
/
&electrons
   conv_thr = 1e-10
/
ATOMIC_SPECIES
Pt      1.0    Pt.rel-pbesol-n-nc.UPF
ATOMIC_POSITIONS {angstrom}
Pt   0. 0. 0.
K_POINTS crystal
         178
    0.250000    0.750000    0.500000   1.0
    0.258333    0.741667    0.500000   1.0
    0.266667    0.733333    0.500000   1.0
    0.275000    0.725000    0.500000   1.0
    0.283333    0.716667    0.500000   1.0
    0.291667    0.708333    0.500000   1.0
    0.300000    0.700000    0.500000   1.0
    0.308333    0.691667    0.500000   1.0
    0.316667    0.683333    0.500000   1.0
    0.325000    0.675000    0.500000   1.0
    0.333333    0.666667    0.500000   1.0
    0.341667    0.658333    0.500000   1.0
    0.350000    0.650000    0.500000   1.0
    0.358333    0.641667    0.500000   1.0
    0.366667    0.633333    0.500000   1.0
    0.375000    0.625000    0.500000   1.0
    0.383333    0.616667    0.500000   1.0
    0.391667    0.608333    0.500000   1.0
    0.400000    0.600000    0.500000   1.0
    0.408333    0.591667    0.500000   1.0
    0.416667    0.583333    0.500000   1.0
    0.425000    0.575000    0.500000   1.0
    0.433333    0.566667    0.500000   1.0
    0.441667    0.558333    0.500000   1.0
    0.450000    0.550000    0.500000   1.0
    0.458333    0.541667    0.500000   1.0
    0.466667    0.533333    0.500000   1.0
    0.475000    0.525000    0.500000   1.0
    0.483333    0.516667    0.500000   1.0
    0.491667    0.508333    0.500000   1.0
    0.500000    0.500000    0.500000   1.0
    0.486486    0.486486    0.486486   1.0
    0.472973    0.472973    0.472973   1.0
    0.459459    0.459459    0.459459   1.0
    0.445946    0.445946    0.445946   1.0
    0.432432    0.432432    0.432432   1.0
    0.418919    0.418919    0.418919   1.0
    0.405405    0.405405    0.405405   1.0
    0.391892    0.391892    0.391892   1.0
    0.378378    0.378378    0.378378   1.0
    0.364865    0.364865    0.364865   1.0
    0.351351    0.351351    0.351351   1.0
    0.337838    0.337838    0.337838   1.0
    0.324324    0.324324    0.324324   1.0
    0.310811    0.310811    0.310811   1.0
    0.297297    0.297297    0.297297   1.0
    0.283784    0.283784    0.283784   1.0
    0.270270    0.270270    0.270270   1.0
    0.256757    0.256757    0.256757   1.0
    0.243243    0.243243    0.243243   1.0
    0.229730    0.229730    0.229730   1.0
    0.216216    0.216216    0.216216   1.0
    0.202703    0.202703    0.202703   1.0
    0.189189    0.189189    0.189189   1.0
    0.175676    0.175676    0.175676   1.0
    0.162162    0.162162    0.162162   1.0
    0.148649    0.148649    0.148649   1.0
    0.135135    0.135135    0.135135   1.0
    0.121622    0.121622    0.121622   1.0
    0.108108    0.108108    0.108108   1.0
    0.094595    0.094595    0.094595   1.0
    0.081081    0.081081    0.081081   1.0
    0.067568    0.067568    0.067568   1.0
    0.054054    0.054054    0.054054   1.0
    0.040541    0.040541    0.040541   1.0
    0.027027    0.027027    0.027027   1.0
    0.013514    0.013514    0.013514   1.0
    0.000000    0.000000    0.000000   1.0
    0.011905    0.000000    0.011905   1.0
    0.023810    0.000000    0.023810   1.0
    0.035714    0.000000    0.035714   1.0
    0.047619    0.000000    0.047619   1.0
    0.059524    0.000000    0.059524   1.0
    0.071429    0.000000    0.071429   1.0
    0.083333    0.000000    0.083333   1.0
    0.095238    0.000000    0.095238   1.0
    0.107143    0.000000    0.107143   1.0
    0.119048    0.000000    0.119048   1.0
    0.130952    0.000000    0.130952   1.0
    0.142857    0.000000    0.142857   1.0
    0.154762    0.000000    0.154762   1.0
    0.166667    0.000000    0.166667   1.0
    0.178571    0.000000    0.178571   1.0
    0.190476    0.000000    0.190476   1.0
    0.202381    0.000000    0.202381   1.0
    0.214286    0.000000    0.214286   1.0
    0.226190    0.000000    0.226190   1.0
    0.238095    0.000000    0.238095   1.0
    0.250000    0.000000    0.250000   1.0
    0.261905    0.000000    0.261905   1.0
    0.273810    0.000000    0.273810   1.0
    0.285714    0.000000    0.285714   1.0
    0.297619    0.000000    0.297619   1.0
    0.309524    0.000000    0.309524   1.0
    0.321429    0.000000    0.321429   1.0
    0.333333    0.000000    0.333333   1.0
    0.345238    0.000000    0.345238   1.0
    0.357143    0.000000    0.357143   1.0
    0.369048    0.000000    0.369048   1.0
    0.380952    0.000000    0.380952   1.0
    0.392857    0.000000    0.392857   1.0
    0.404762    0.000000    0.404762   1.0
    0.416667    0.000000    0.416667   1.0
    0.428571    0.000000    0.428571   1.0
    0.440476    0.000000    0.440476   1.0
    0.452381    0.000000    0.452381   1.0
    0.464286    0.000000    0.464286   1.0
    0.476190    0.000000    0.476190   1.0
    0.488095    0.000000    0.488095   1.0
    0.500000    0.000000    0.500000   1.0
    0.500000    0.011905    0.511905   1.0
    0.500000    0.023810    0.523810   1.0
    0.500000    0.035714    0.535714   1.0
    0.500000    0.047619    0.547619   1.0
    0.500000    0.059524    0.559524   1.0
    0.500000    0.071429    0.571429   1.0
    0.500000    0.083333    0.583333   1.0
    0.500000    0.095238    0.595238   1.0
    0.500000    0.107143    0.607143   1.0
    0.500000    0.119048    0.619048   1.0
    0.500000    0.130952    0.630952   1.0
    0.500000    0.142857    0.642857   1.0
    0.500000    0.154762    0.654762   1.0
    0.500000    0.166667    0.666667   1.0
    0.500000    0.178571    0.678571   1.0
    0.500000    0.190476    0.690476   1.0
    0.500000    0.202381    0.702381   1.0
    0.500000    0.214286    0.714286   1.0
    0.500000    0.226190    0.726190   1.0
    0.500000    0.238095    0.738095   1.0
    0.500000    0.250000    0.750000   1.0
    0.489362    0.244681    0.734043   1.0
    0.478723    0.239362    0.718085   1.0
    0.468085    0.234043    0.702128   1.0
    0.457447    0.228723    0.686170   1.0
    0.446809    0.223404    0.670213   1.0
    0.436170    0.218085    0.654255   1.0
    0.425532    0.212766    0.638298   1.0
    0.414894    0.207447    0.622340   1.0
    0.404255    0.202128    0.606383   1.0
    0.393617    0.196809    0.590426   1.0
    0.382979    0.191489    0.574468   1.0
    0.372340    0.186170    0.558511   1.0
    0.361702    0.180851    0.542553   1.0
    0.351064    0.175532    0.526596   1.0
    0.340426    0.170213    0.510638   1.0
    0.329787    0.164894    0.494681   1.0
    0.319149    0.159574    0.478723   1.0
    0.308511    0.154255    0.462766   1.0
    0.297872    0.148936    0.446809   1.0
    0.287234    0.143617    0.430851   1.0
    0.276596    0.138298    0.414894   1.0
    0.265957    0.132979    0.398936   1.0
    0.255319    0.127660    0.382979   1.0
    0.244681    0.122340    0.367021   1.0
    0.234043    0.117021    0.351064   1.0
    0.223404    0.111702    0.335106   1.0
    0.212766    0.106383    0.319149   1.0
    0.202128    0.101064    0.303191   1.0
    0.191489    0.095745    0.287234   1.0
    0.180851    0.090426    0.271277   1.0
    0.170213    0.085106    0.255319   1.0
    0.159574    0.079787    0.239362   1.0
    0.148936    0.074468    0.223404   1.0
    0.138298    0.069149    0.207447   1.0
    0.127660    0.063830    0.191489   1.0
    0.117021    0.058511    0.175532   1.0
    0.106383    0.053191    0.159574   1.0
    0.095745    0.047872    0.143617   1.0
    0.085106    0.042553    0.127660   1.0
    0.074468    0.037234    0.111702   1.0
    0.063830    0.031915    0.095745   1.0
    0.053191    0.026596    0.079787   1.0
    0.042553    0.021277    0.063830   1.0
    0.031915    0.015957    0.047872   1.0
    0.021277    0.010638    0.031915   1.0
    0.010638    0.005319    0.015957   1.0
    0.000000    0.000000    0.000000   1.0
