&control
    calculation = 'bands'
    prefix      = 'Pt'
    outdir      = './temp/'
    pseudo_dir  = './'
    verbosity   = 'high'
/
&system
    ibrav       = 2
    celldm(1)   = 7.3926
    nat         = 1
    ntyp        = 1
    ecutwfc     = 60.0
    occupations = 'smearing'
    degauss     = 0.03
    noncolin    = .true.
    lspinorb    = .true.
    nbnd = 24
/
&electrons
   conv_thr = 1e-10
/
ATOMIC_SPECIES
Pt      1.0    Pt.rel-pbesol-n-nc.UPF
ATOMIC_POSITIONS {angstrom}
Pt   0. 0. 0.
K_POINTS crystal
64
  0.000000000000  0.000000000000  0.000000000000  1.56250000e-02
  0.000000000000  0.000000000000  0.250000000000  1.56250000e-02
  0.000000000000  0.000000000000  0.500000000000  1.56250000e-02
  0.000000000000  0.000000000000  0.750000000000  1.56250000e-02
  0.000000000000  0.250000000000  0.000000000000  1.56250000e-02
  0.000000000000  0.250000000000  0.250000000000  1.56250000e-02
  0.000000000000  0.250000000000  0.500000000000  1.56250000e-02
  0.000000000000  0.250000000000  0.750000000000  1.56250000e-02
  0.000000000000  0.500000000000  0.000000000000  1.56250000e-02
  0.000000000000  0.500000000000  0.250000000000  1.56250000e-02
  0.000000000000  0.500000000000  0.500000000000  1.56250000e-02
  0.000000000000  0.500000000000  0.750000000000  1.56250000e-02
  0.000000000000  0.750000000000  0.000000000000  1.56250000e-02
  0.000000000000  0.750000000000  0.250000000000  1.56250000e-02
  0.000000000000  0.750000000000  0.500000000000  1.56250000e-02
  0.000000000000  0.750000000000  0.750000000000  1.56250000e-02
  0.250000000000  0.000000000000  0.000000000000  1.56250000e-02
  0.250000000000  0.000000000000  0.250000000000  1.56250000e-02
  0.250000000000  0.000000000000  0.500000000000  1.56250000e-02
  0.250000000000  0.000000000000  0.750000000000  1.56250000e-02
  0.250000000000  0.250000000000  0.000000000000  1.56250000e-02
  0.250000000000  0.250000000000  0.250000000000  1.56250000e-02
  0.250000000000  0.250000000000  0.500000000000  1.56250000e-02
  0.250000000000  0.250000000000  0.750000000000  1.56250000e-02
  0.250000000000  0.500000000000  0.000000000000  1.56250000e-02
  0.250000000000  0.500000000000  0.250000000000  1.56250000e-02
  0.250000000000  0.500000000000  0.500000000000  1.56250000e-02
  0.250000000000  0.500000000000  0.750000000000  1.56250000e-02
  0.250000000000  0.750000000000  0.000000000000  1.56250000e-02
  0.250000000000  0.750000000000  0.250000000000  1.56250000e-02
  0.250000000000  0.750000000000  0.500000000000  1.56250000e-02
  0.250000000000  0.750000000000  0.750000000000  1.56250000e-02
  0.500000000000  0.000000000000  0.000000000000  1.56250000e-02
  0.500000000000  0.000000000000  0.250000000000  1.56250000e-02
  0.500000000000  0.000000000000  0.500000000000  1.56250000e-02
  0.500000000000  0.000000000000  0.750000000000  1.56250000e-02
  0.500000000000  0.250000000000  0.000000000000  1.56250000e-02
  0.500000000000  0.250000000000  0.250000000000  1.56250000e-02
  0.500000000000  0.250000000000  0.500000000000  1.56250000e-02
  0.500000000000  0.250000000000  0.750000000000  1.56250000e-02
  0.500000000000  0.500000000000  0.000000000000  1.56250000e-02
  0.500000000000  0.500000000000  0.250000000000  1.56250000e-02
  0.500000000000  0.500000000000  0.500000000000  1.56250000e-02
  0.500000000000  0.500000000000  0.750000000000  1.56250000e-02
  0.500000000000  0.750000000000  0.000000000000  1.56250000e-02
  0.500000000000  0.750000000000  0.250000000000  1.56250000e-02
  0.500000000000  0.750000000000  0.500000000000  1.56250000e-02
  0.500000000000  0.750000000000  0.750000000000  1.56250000e-02
  0.750000000000  0.000000000000  0.000000000000  1.56250000e-02
  0.750000000000  0.000000000000  0.250000000000  1.56250000e-02
  0.750000000000  0.000000000000  0.500000000000  1.56250000e-02
  0.750000000000  0.000000000000  0.750000000000  1.56250000e-02
  0.750000000000  0.250000000000  0.000000000000  1.56250000e-02
  0.750000000000  0.250000000000  0.250000000000  1.56250000e-02
  0.750000000000  0.250000000000  0.500000000000  1.56250000e-02
  0.750000000000  0.250000000000  0.750000000000  1.56250000e-02
  0.750000000000  0.500000000000  0.000000000000  1.56250000e-02
  0.750000000000  0.500000000000  0.250000000000  1.56250000e-02
  0.750000000000  0.500000000000  0.500000000000  1.56250000e-02
  0.750000000000  0.500000000000  0.750000000000  1.56250000e-02
  0.750000000000  0.750000000000  0.000000000000  1.56250000e-02
  0.750000000000  0.750000000000  0.250000000000  1.56250000e-02
  0.750000000000  0.750000000000  0.500000000000  1.56250000e-02
  0.750000000000  0.750000000000  0.750000000000  1.56250000e-02
