num_bands         =   24
num_wann          =   18

#restart = plot
bands_plot = true

dis_win_max  = 45.0d0
dis_froz_max = 22.0d0

dis_num_iter      =  1000

num_iter          = 1000
dis_mix_ratio = 0.6
#write_tb = T

spinors = T
begin projections
Pt:l=0;l=1;l=2
end projections

begin kpoint_path
W 0.250  0.750 0.500 L 0.500  0.500 0.500
L 0.500  0.500 0.500 G 0.000  0.000 0.000
G 0.000  0.000 0.000 X 0.500  0.000 0.500
X 0.500  0.000 0.500 W 0.500  0.250 0.750
W 0.500  0.250 0.750 G 0.000  0.000 0.000
end kpoint_path
bands_num_points = 100

fermi_energy = 18.1299
#fermi_energy_min = 11.1299
#fermi_energy_max = 21.1299
#fermi_energy_step = 0.01
#fermi_energy_min = 17.1300
#fermi_energy_max = 19.1300
#fermi_energy_step = 0.01

berry = true
berry_task = shc
shc_freq_scan = .true.
shc_method = ryoo
berry_kmesh = 9 9 9
kubo_adpt_smr=.false.
kubo_smr_fixed_en_width = 0.1
kubo_eigval_max = 1000
kubo_freq_min = 0.00
kubo_freq_max = 1.00
kubo_freq_step = 0.01
shc_alpha=1
shc_beta=2
shc_gamma=3
use_ws_distance=.true.


begin unit_cell_cart
bohr
-3.6963  0.000  3.6963
0.000  3.6963  3.6963
-3.6963  3.6963  0.000
end unit_cell_cart

begin atoms_frac
Pt  0.000  0.000  0.000
end atoms_frac

mp_grid =      4      4      4
begin kpoints
  0.000000000000  0.000000000000  0.000000000000
  0.000000000000  0.000000000000  0.250000000000
  0.000000000000  0.000000000000  0.500000000000
  0.000000000000  0.000000000000  0.750000000000
  0.000000000000  0.250000000000  0.000000000000
  0.000000000000  0.250000000000  0.250000000000
  0.000000000000  0.250000000000  0.500000000000
  0.000000000000  0.250000000000  0.750000000000
  0.000000000000  0.500000000000  0.000000000000
  0.000000000000  0.500000000000  0.250000000000
  0.000000000000  0.500000000000  0.500000000000
  0.000000000000  0.500000000000  0.750000000000
  0.000000000000  0.750000000000  0.000000000000
  0.000000000000  0.750000000000  0.250000000000
  0.000000000000  0.750000000000  0.500000000000
  0.000000000000  0.750000000000  0.750000000000
  0.250000000000  0.000000000000  0.000000000000
  0.250000000000  0.000000000000  0.250000000000
  0.250000000000  0.000000000000  0.500000000000
  0.250000000000  0.000000000000  0.750000000000
  0.250000000000  0.250000000000  0.000000000000
  0.250000000000  0.250000000000  0.250000000000
  0.250000000000  0.250000000000  0.500000000000
  0.250000000000  0.250000000000  0.750000000000
  0.250000000000  0.500000000000  0.000000000000
  0.250000000000  0.500000000000  0.250000000000
  0.250000000000  0.500000000000  0.500000000000
  0.250000000000  0.500000000000  0.750000000000
  0.250000000000  0.750000000000  0.000000000000
  0.250000000000  0.750000000000  0.250000000000
  0.250000000000  0.750000000000  0.500000000000
  0.250000000000  0.750000000000  0.750000000000
  0.500000000000  0.000000000000  0.000000000000
  0.500000000000  0.000000000000  0.250000000000
  0.500000000000  0.000000000000  0.500000000000
  0.500000000000  0.000000000000  0.750000000000
  0.500000000000  0.250000000000  0.000000000000
  0.500000000000  0.250000000000  0.250000000000
  0.500000000000  0.250000000000  0.500000000000
  0.500000000000  0.250000000000  0.750000000000
  0.500000000000  0.500000000000  0.000000000000
  0.500000000000  0.500000000000  0.250000000000
  0.500000000000  0.500000000000  0.500000000000
  0.500000000000  0.500000000000  0.750000000000
  0.500000000000  0.750000000000  0.000000000000
  0.500000000000  0.750000000000  0.250000000000
  0.500000000000  0.750000000000  0.500000000000
  0.500000000000  0.750000000000  0.750000000000
  0.750000000000  0.000000000000  0.000000000000
  0.750000000000  0.000000000000  0.250000000000
  0.750000000000  0.000000000000  0.500000000000
  0.750000000000  0.000000000000  0.750000000000
  0.750000000000  0.250000000000  0.000000000000
  0.750000000000  0.250000000000  0.250000000000
  0.750000000000  0.250000000000  0.500000000000
  0.750000000000  0.250000000000  0.750000000000
  0.750000000000  0.500000000000  0.000000000000
  0.750000000000  0.500000000000  0.250000000000
  0.750000000000  0.500000000000  0.500000000000
  0.750000000000  0.500000000000  0.750000000000
  0.750000000000  0.750000000000  0.000000000000
  0.750000000000  0.750000000000  0.250000000000
  0.750000000000  0.750000000000  0.500000000000
  0.750000000000  0.750000000000  0.750000000000
end kpoints
