&inputpp
   outdir    = './temp/'
   prefix    = 'Pt'
   seedname  = 'Pt'
   write_mmn = .true.
   write_amn = .true.
   write_spn = .true.
   write_sHu = .true.
   write_sIu = .true.
/
