&control
    calculation = 'scf'
    prefix      = 'Pt'
    outdir      = './temp/'
    pseudo_dir  = './'
    tprnfor     = .true.
    tstress     = .true.
/
&system
    ibrav       = 2
    celldm(1)   = 7.3926
    nat         = 1
    ntyp        = 1
    ecutwfc     = 60.0
    occupations = 'smearing'
    degauss     = 0.03
    noncolin    = .true.
    lspinorb    = .true.
/
&electrons
    conv_thr = 1e-12
/
ATOMIC_SPECIES
Pt      1.0    Pt.rel-pbesol-n-nc.UPF
ATOMIC_POSITIONS {angstrom}
Pt   0. 0. 0.
K_POINTS {automatic}
12 12 12 0 0 0
