num_wann        =  4
num_bands       =  10
num_iter        = 1000
dis_num_iter = 1000
num_print_cycles = 20

site_symmetry = T

dis_win_max=22.0

begin atoms_frac
C   -0.12500  -0.1250    -0.125000
C    0.12500   0.1250     0.125000
end atoms_frac


begin projections
f=0.0,0.0,0.0:s
f=0.0,0.0,0.5:s
f=0.0,0.5,0.0:s
f=0.5,0.0,0.0:s
end projections


begin unit_cell_cart
-1.613990   0.000000   1.613990
 0.000000   1.613990   1.613990
-1.613990   1.613990   0.000000
end unit_cell_cart

mp_grid : 2 2 2

begin kpoints
  0.00000000  0.00000000  0.00000000  1.250000e-01
  0.00000000  0.00000000  0.50000000  1.250000e-01
  0.00000000  0.50000000  0.00000000  1.250000e-01
  0.00000000  0.50000000  0.50000000  1.250000e-01
  0.50000000  0.00000000  0.00000000  1.250000e-01
  0.50000000  0.00000000  0.50000000  1.250000e-01
  0.50000000  0.50000000  0.00000000  1.250000e-01
  0.50000000  0.50000000  0.50000000  1.250000e-01
end kpoints
