 &control
    calculation='scf',
	prefix='Pt',
	tprnfor=.true.,
	tstress=.true.,
	verbosity='high',
  outdir='./tempdir/',
  pseudo_dir='./pseudo/',
 /
 &system
   ibrav=2,
   celldm(1)=7.3926,
   nat=1,
   ntyp=1,
   ecutwfc=60.0,
   occupations='smearing',
   degauss=0.03
   noncolin=.true.
   lspinorb=.true.
 /
 &electrons
   mixing_beta=0.4,
   conv_thr=1e-8,
!   startingpot='file'
 /
ATOMIC_SPECIES
Pt      1.0    Pt.rel-pbesol-n-nc.UPF

ATOMIC_POSITIONS {angstrom}
Pt   0   0   0

K_POINTS {automatic}
12 12 12 1 1 1
