 &control
    calculation='nscf'
    restart_mode='from_scratch',
    pseudo_dir = '.',
    outdir='./'
    prefix='Fe'
 /
 &system
    ibrav = 3, celldm(1) =5.4235, nat= 1, ntyp= 1,
    ecutwfc =60.0
    lspinorb=.true.,
    noncolin=.true.,
    starting_magnetization(1) = -1,
    nbnd=60 
    occupations='smearing', smearing='cold', degauss=0.02
 nosym=.true.
 /
 &electrons
    startingwfc='random'
    diagonalization='david'
    conv_thr=1.0e-10
 /
ATOMIC_SPECIES
 Fe 55.85 Fe.upf
ATOMIC_POSITIONS
 Fe 0.0 0.0 0.0
K_POINTS crystal
27
  0.00000000  0.00000000  0.00000000  3.703704e-02
  0.00000000  0.00000000  0.33333333  3.703704e-02
  0.00000000  0.00000000  0.66666667  3.703704e-02
  0.00000000  0.33333333  0.00000000  3.703704e-02
  0.00000000  0.33333333  0.33333333  3.703704e-02
  0.00000000  0.33333333  0.66666667  3.703704e-02
  0.00000000  0.66666667  0.00000000  3.703704e-02
  0.00000000  0.66666667  0.33333333  3.703704e-02
  0.00000000  0.66666667  0.66666667  3.703704e-02
  0.33333333  0.00000000  0.00000000  3.703704e-02
  0.33333333  0.00000000  0.33333333  3.703704e-02
  0.33333333  0.00000000  0.66666667  3.703704e-02
  0.33333333  0.33333333  0.00000000  3.703704e-02
  0.33333333  0.33333333  0.33333333  3.703704e-02
  0.33333333  0.33333333  0.66666667  3.703704e-02
  0.33333333  0.66666667  0.00000000  3.703704e-02
  0.33333333  0.66666667  0.33333333  3.703704e-02
  0.33333333  0.66666667  0.66666667  3.703704e-02
  0.66666667  0.00000000  0.00000000  3.703704e-02
  0.66666667  0.00000000  0.33333333  3.703704e-02
  0.66666667  0.00000000  0.66666667  3.703704e-02
  0.66666667  0.33333333  0.00000000  3.703704e-02
  0.66666667  0.33333333  0.33333333  3.703704e-02
  0.66666667  0.33333333  0.66666667  3.703704e-02
  0.66666667  0.66666667  0.00000000  3.703704e-02
  0.66666667  0.66666667  0.33333333  3.703704e-02
  0.66666667  0.66666667  0.66666667  3.703704e-02
