num_bands         =  60        
num_wann          =   18 

dis_win_min       = -8.0d0       
dis_win_max       = 100.0d0
dis_froz_min      = -8.0d0
dis_froz_max      =  20.0d0
dis_num_iter      = 2000

num_iter          = 0 
dis_mix_ratio = 1.0

spinors = T
begin projections
Fe: sp3d2;dxy;dxz;dyz
end projections

write_tb = True

#fermi_energy = 
#restart=plot
bands_plot=T

kpath = true
kpath_task = curv
kpath_num_points=1000
begin kpoint_path
G 0.0000 0.0000 0.0000   H 0.500 -0.5000 -0.5000
H 0.500 -0.5000 -0.5000  P 0.7500 0.2500 -0.2500
P 0.7500 0.2500 -0.2500  N 0.5000 0.0000 -0.5000
N 0.5000 0.0000 -0.5000  G 0.0000 0.0000 0.000
G 0.0000 0.0000 0.000    H 0.5 0.5 0.5
H 0.5 0.5 0.5            N 0.5 0.0 0.0
N 0.5 0.0 0.0            G 0.0 0.0 0.0
G 0.0 0.0 0.0            P 0.75 0.25 -0.25
P 0.75 0.25 -0.25        N 0.5 0.0 0.0
end kpoint_path

#kslice = true
#kslice_task = curv+fermi_lines
#kslice_2dkmesh = 200
#kslice_corner = 0.0  0.0  0.0
#kslice_b1 =     0.5 -0.5 -0.5
#kslice_b2 =     0.5  0.5  0.5

#berry = true
#berry_task = ahc                
#berry_kmesh = 25 25 25

begin unit_cell_cart
bohr
 2.71175  2.71175 2.71175
-2.71175  2.71175 2.71175
-2.71175 -2.71175 2.71175
end unit_cell_cart

begin atoms_frac
Fe  0.000  0.000  0.000
end atoms_frac

mp_grid           = 3 3 3

begin kpoints
  0.00000000  0.00000000  0.00000000
  0.00000000  0.00000000  0.33333333
  0.00000000  0.00000000  0.66666667
  0.00000000  0.33333333  0.00000000
  0.00000000  0.33333333  0.33333333
  0.00000000  0.33333333  0.66666667
  0.00000000  0.66666667  0.00000000
  0.00000000  0.66666667  0.33333333
  0.00000000  0.66666667  0.66666667
  0.33333333  0.00000000  0.00000000
  0.33333333  0.00000000  0.33333333
  0.33333333  0.00000000  0.66666667
  0.33333333  0.33333333  0.00000000
  0.33333333  0.33333333  0.33333333
  0.33333333  0.33333333  0.66666667
  0.33333333  0.66666667  0.00000000
  0.33333333  0.66666667  0.33333333
  0.33333333  0.66666667  0.66666667
  0.66666667  0.00000000  0.00000000
  0.66666667  0.00000000  0.33333333
  0.66666667  0.00000000  0.66666667
  0.66666667  0.33333333  0.00000000
  0.66666667  0.33333333  0.33333333
  0.66666667  0.33333333  0.66666667
  0.66666667  0.66666667  0.00000000
  0.66666667  0.66666667  0.33333333
  0.66666667  0.66666667  0.66666667
end kpoints
