## Tellurium
   4.45700000000000     
     1.0000000000000000    0.0000000000000000    0.0000000000000000
    -0.5000000000000000    0.8660254040000001    0.0000000000000000
     0.0000000000000000    0.0000000000000000    1.3368000000000000
   Te
     3
Selective dynamics
Direct
  0.2740000000000000  0.2740000000000000 -0.0000000000000000   T   T   F
  0.7260000000000000  0.0000000000000000  0.3333333333333333   T   F   F
  0.0000000000000000  0.7260000000000000  0.6666666666666666   T   T   F
 
  0.00000000E+00  0.00000000E+00  0.00000000E+00
  0.00000000E+00  0.00000000E+00  0.00000000E+00
  0.00000000E+00  0.00000000E+00  0.00000000E+00

