&inputpp
   outdir = './temp/'
   prefix = 'Si'
   seedname = 'Si'
   write_mmn = .true.
   write_amn = .true.
   write_uHu = .true.
   write_uIu = .true.
/
