# ========== Berry =============
berry = true
berry_task = kubo+shc
berry_kmesh = 6 6 6

adpt_smr = false
smr_type = gauss
smr_fixed_en_width = 0.20

fermi_energy = 17.0

kubo_freq_min = 0.0
kubo_freq_max = 7.0
kubo_freq_step = 1.0
kubo_eigval_max = 1000.0

shc_freq_scan = .true.
shc_alpha = 1
shc_beta  = 2
shc_gamma = 3
# =============================

exclude_bands = 1-8
num_bands    =   20
num_wann     =   18

dis_win_min  = -8.0d0
dis_win_max  = 70.0d0
dis_froz_min = -8.0d0
dis_froz_max =  30.0d0
dis_num_iter =  2000
dis_mix_ratio = 1.0
dis_conv_tol = 1.d-10

num_iter     = 2000
conv_tol     = 1.d-10
conv_window  = 5

spinors = T
begin projections
Fe: sp3d2;dxy;dxz;dyz
end projections

use_ws_distance = true

begin unit_cell_cart
bohr
 2.71175  2.71175 2.71175
-2.71175  2.71175 2.71175
-2.71175 -2.71175 2.71175
end unit_cell_cart

begin atoms_frac
Fe  0.000  0.000  0.000
end atoms_frac

mp_grid =      3      3      3
begin kpoints
  0.00000000  0.00000000  0.00000000
  0.00000000  0.00000000  0.33333333
  0.00000000  0.00000000  0.66666667
  0.00000000  0.33333333  0.00000000
  0.00000000  0.33333333  0.33333333
  0.00000000  0.33333333  0.66666667
  0.00000000  0.66666667  0.00000000
  0.00000000  0.66666667  0.33333333
  0.00000000  0.66666667  0.66666667
  0.33333333  0.00000000  0.00000000
  0.33333333  0.00000000  0.33333333
  0.33333333  0.00000000  0.66666667
  0.33333333  0.33333333  0.00000000
  0.33333333  0.33333333  0.33333333
  0.33333333  0.33333333  0.66666667
  0.33333333  0.66666667  0.00000000
  0.33333333  0.66666667  0.33333333
  0.33333333  0.66666667  0.66666667
  0.66666667  0.00000000  0.00000000
  0.66666667  0.00000000  0.33333333
  0.66666667  0.00000000  0.66666667
  0.66666667  0.33333333  0.00000000
  0.66666667  0.33333333  0.33333333
  0.66666667  0.33333333  0.66666667
  0.66666667  0.66666667  0.00000000
  0.66666667  0.66666667  0.33333333
  0.66666667  0.66666667  0.66666667
end kpoints
