&inputpp
   outdir = './temp/'
   prefix = 'GaAs'
   seedname = 'GaAs'
   write_mmn = .true.
   write_amn = .true.
   write_spn = .true.
/
