&CONTROL
   calculation      = 'scf'
   verbosity        = "'high'"
   restart_mode     = 'from_scratch'
   outdir           = './'
   prefix           = './tmp1/tellurium'
   pseudo_dir       = '.'
/
&SYSTEM
   ecutwfc          = 40
   occupations      = 'smearing'
   degauss          = 0.02
   smearing         = 'marzari-vanderbilt'
   noncolin         = .true.
   lforcet          = .false.
   lspinorb         = .true.
   starting_magnetization(1) = 0.0
   ntyp             = 1
   nat              = 3
   ibrav            = 0
/
&ELECTRONS
   conv_thr         = 1e-10
   diagonalization  = 'david'
   startingwfc      = 'random'
/
&IONS
/
&CELL
/
&FCP
/
&RISM
/
ATOMIC_SPECIES
Te  127.6 Te.pbe-n-nc.UPF

K_POINTS automatic
6 6 6  0 0 0

CELL_PARAMETERS angstrom
4.45699999832199 0.00000000000000 0.00000000000000
-2.22849999916099 3.85987522321404 0.00000000000000
0.00000000000000 0.00000000000000 5.95811759775683

ATOMIC_POSITIONS crystal
Te  0.2740000000 0.2740000000 0.0000000000  
Te  -0.2740000000 0.0000000000 0.3333333333  
Te  0.0000000000 -0.2740000000 0.6666666667  

