#written by WannierBerri
begin kpoints
       0.000000000000     0.000000000000     0.000000000000
       0.000000000000     0.000000000000     0.500000000000
       0.000000000000     0.333333333333     0.000000000000
       0.000000000000     0.333333333333     0.500000000000
       0.000000000000     0.666666666667     0.000000000000
       0.000000000000     0.666666666667     0.500000000000
       0.333333333333     0.000000000000     0.000000000000
       0.333333333333     0.000000000000     0.500000000000
       0.333333333333     0.333333333333     0.000000000000
       0.333333333333     0.333333333333     0.500000000000
       0.333333333333     0.666666666667     0.000000000000
       0.333333333333     0.666666666667     0.500000000000
       0.666666666667     0.000000000000     0.000000000000
       0.666666666667     0.000000000000     0.500000000000
       0.666666666667     0.333333333333     0.000000000000
       0.666666666667     0.333333333333     0.500000000000
       0.666666666667     0.666666666667     0.000000000000
       0.666666666667     0.666666666667     0.500000000000
end kpoints

begin unit_cell_cart
ang
       4.456999998322     0.000000000000     0.000000000000
      -2.228499999161     3.859875223214     0.000000000000
       0.000000000000     0.000000000000     5.958117597757
end unit_cell_cart

begin atoms_frac
     Te  0.274000000000     0.274000000000     0.000000000000
     Te  0.726000000000     0.000000000000     0.333333333333
     Te  0.000000000000     0.726000000000     0.666666666667
end atoms_frac

num_wann = 24

num_bands = 32

begin projections
f=0.274000000000, 0.274000000000, 0.000000000000: s
f=0.726000000000, 0.000000000000, 0.333333333333: s
f=0.000000000000, 0.726000000000, 0.666666666667: s
f=0.274000000000, 0.274000000000, 0.000000000000: p
f=0.726000000000, 0.000000000000, 0.333333333333: p
f=0.000000000000, 0.726000000000, 0.666666666667: p
end projections

num_iter = 0

dis_num_iter = 0

spinors = True

mp_grid = 3 3 2

