&control
    calculation  = 'bands'
    prefix       = 'GeTe'
    pseudo_dir   = '~/PP/all/'
    outdir       = './temp/'
    disk_io      = 'nowf'
    verbosity    = 'high'
/
&system
    ibrav     = 5
    celldm(1) = 8.28600098
    celldm(4) = 0.53389363
    ntyp      = 2
    nat       = 2
    ecutwfc   = 70
    nbnd = 30
/
&electrons
   conv_thr = 1.d-10
/
ATOMIC_SPECIES
 Ge 72.61 Ge.dojo.sr.ONCVv0.4.pbe.standard.upf
 Te 127.6 Te.dojo.sr.ONCVv0.4.pbe.standard.upf
ATOMIC_POSITIONS crystal
Ge            0.0000000000        0.0000000000        0.0000000000
Te            0.4688262167        0.4688262167        0.4688262167
 K_POINTS crystal
         160
    0.000000    0.000000    0.000000   1.0
    0.016667    0.000000    0.000000   1.0
    0.033333    0.000000    0.000000   1.0
    0.050000    0.000000    0.000000   1.0
    0.066667    0.000000    0.000000   1.0
    0.083333    0.000000    0.000000   1.0
    0.100000    0.000000    0.000000   1.0
    0.116667    0.000000    0.000000   1.0
    0.133333    0.000000    0.000000   1.0
    0.150000    0.000000    0.000000   1.0
    0.166667    0.000000    0.000000   1.0
    0.183333    0.000000    0.000000   1.0
    0.200000    0.000000    0.000000   1.0
    0.216667    0.000000    0.000000   1.0
    0.233333    0.000000    0.000000   1.0
    0.250000    0.000000    0.000000   1.0
    0.266667    0.000000    0.000000   1.0
    0.283333    0.000000    0.000000   1.0
    0.300000    0.000000    0.000000   1.0
    0.316667    0.000000    0.000000   1.0
    0.333333    0.000000    0.000000   1.0
    0.350000    0.000000    0.000000   1.0
    0.366667    0.000000    0.000000   1.0
    0.383333    0.000000    0.000000   1.0
    0.400000    0.000000    0.000000   1.0
    0.416667    0.000000    0.000000   1.0
    0.433333    0.000000    0.000000   1.0
    0.450000    0.000000    0.000000   1.0
    0.466667    0.000000    0.000000   1.0
    0.483333    0.000000    0.000000   1.0
    0.500000    0.000000    0.000000   1.0
    0.504034    0.019659    0.007556   1.0
    0.508069    0.039319    0.015112   1.0
    0.512103    0.058978    0.022669   1.0
    0.516138    0.078637    0.030225   1.0
    0.520172    0.098297    0.037781   1.0
    0.524206    0.117956    0.045337   1.0
    0.528241    0.137616    0.052894   1.0
    0.532275    0.157275    0.060450   1.0
    0.536309    0.176934    0.068006   1.0
    0.540344    0.196594    0.075562   1.0
    0.544378    0.216253    0.083119   1.0
    0.548412    0.235912    0.090675   1.0
    0.552447    0.255572    0.098231   1.0
    0.556481    0.275231    0.105787   1.0
    0.560516    0.294891    0.113344   1.0
    0.564550    0.314550    0.120900   1.0
    0.568584    0.334209    0.128456   1.0
    0.572619    0.353869    0.136012   1.0
    0.576653    0.373528    0.143569   1.0
    0.580688    0.393188    0.151125   1.0
    0.584722    0.412847    0.158681   1.0
    0.588756    0.432506    0.166237   1.0
    0.592791    0.452166    0.173794   1.0
    0.596825    0.471825    0.181350   1.0
    0.600859    0.491484    0.188906   1.0
    0.604894    0.511144    0.196462   1.0
    0.608928    0.530803    0.204019   1.0
    0.612962    0.550462    0.211575   1.0
    0.616997    0.570122    0.219131   1.0
    0.621031    0.589781    0.226687   1.0
    0.625066    0.609441    0.234244   1.0
    0.629100    0.629100    0.241800   1.0
    0.618342    0.618342    0.221650   1.0
    0.607583    0.607583    0.201500   1.0
    0.596825    0.596825    0.181350   1.0
    0.586067    0.586067    0.161200   1.0
    0.575308    0.575308    0.141050   1.0
    0.564550    0.564550    0.120900   1.0
    0.553792    0.553792    0.100750   1.0
    0.543033    0.543033    0.080600   1.0
    0.532275    0.532275    0.060450   1.0
    0.521517    0.521517    0.040300   1.0
    0.510758    0.510758    0.020150   1.0
    0.500000    0.500000    0.000000   1.0
    0.485294    0.485294    0.000000   1.0
    0.470588    0.470588    0.000000   1.0
    0.455882    0.455882    0.000000   1.0
    0.441176    0.441176    0.000000   1.0
    0.426471    0.426471    0.000000   1.0
    0.411765    0.411765    0.000000   1.0
    0.397059    0.397059    0.000000   1.0
    0.382353    0.382353    0.000000   1.0
    0.367647    0.367647    0.000000   1.0
    0.352941    0.352941    0.000000   1.0
    0.338235    0.338235    0.000000   1.0
    0.323529    0.323529    0.000000   1.0
    0.308824    0.308824    0.000000   1.0
    0.294118    0.294118    0.000000   1.0
    0.279412    0.279412    0.000000   1.0
    0.264706    0.264706    0.000000   1.0
    0.250000    0.250000    0.000000   1.0
    0.235294    0.235294    0.000000   1.0
    0.220588    0.220588    0.000000   1.0
    0.205882    0.205882    0.000000   1.0
    0.191176    0.191176    0.000000   1.0
    0.176471    0.176471    0.000000   1.0
    0.161765    0.161765    0.000000   1.0
    0.147059    0.147059    0.000000   1.0
    0.132353    0.132353    0.000000   1.0
    0.117647    0.117647    0.000000   1.0
    0.102941    0.102941    0.000000   1.0
    0.088235    0.088235    0.000000   1.0
    0.073529    0.073529    0.000000   1.0
    0.058824    0.058824    0.000000   1.0
    0.044118    0.044118    0.000000   1.0
    0.029412    0.029412    0.000000   1.0
    0.014706    0.014706    0.000000   1.0
    0.000000    0.000000    0.000000   1.0
    0.017241    0.017241    0.017241   1.0
    0.034483    0.034483    0.034483   1.0
    0.051724    0.051724    0.051724   1.0
    0.068966    0.068966    0.068966   1.0
    0.086207    0.086207    0.086207   1.0
    0.103448    0.103448    0.103448   1.0
    0.120690    0.120690    0.120690   1.0
    0.137931    0.137931    0.137931   1.0
    0.155172    0.155172    0.155172   1.0
    0.172414    0.172414    0.172414   1.0
    0.189655    0.189655    0.189655   1.0
    0.206897    0.206897    0.206897   1.0
    0.224138    0.224138    0.224138   1.0
    0.241379    0.241379    0.241379   1.0
    0.258621    0.258621    0.258621   1.0
    0.275862    0.275862    0.275862   1.0
    0.293103    0.293103    0.293103   1.0
    0.310345    0.310345    0.310345   1.0
    0.327586    0.327586    0.327586   1.0
    0.344828    0.344828    0.344828   1.0
    0.362069    0.362069    0.362069   1.0
    0.379310    0.379310    0.379310   1.0
    0.396552    0.396552    0.396552   1.0
    0.413793    0.413793    0.413793   1.0
    0.431034    0.431034    0.431034   1.0
    0.448276    0.448276    0.448276   1.0
    0.465517    0.465517    0.465517   1.0
    0.482759    0.482759    0.482759   1.0
    0.500000    0.500000    0.500000   1.0
    0.505868    0.505868    0.488264   1.0
    0.511736    0.511736    0.476527   1.0
    0.517605    0.517605    0.464791   1.0
    0.523473    0.523473    0.453055   1.0
    0.529341    0.529341    0.441318   1.0
    0.535209    0.535209    0.429582   1.0
    0.541077    0.541077    0.417845   1.0
    0.546945    0.546945    0.406109   1.0
    0.552814    0.552814    0.394373   1.0
    0.558682    0.558682    0.382636   1.0
    0.564550    0.564550    0.370900   1.0
    0.570418    0.570418    0.359164   1.0
    0.576286    0.576286    0.347427   1.0
    0.582155    0.582155    0.335691   1.0
    0.588023    0.588023    0.323955   1.0
    0.593891    0.593891    0.312218   1.0
    0.599759    0.599759    0.300482   1.0
    0.605627    0.605627    0.288745   1.0
    0.611495    0.611495    0.277009   1.0
    0.617364    0.617364    0.265273   1.0
    0.623232    0.623232    0.253536   1.0
    0.629100    0.629100    0.241800   1.0
