num_wann  = 8
num_bands = 15
exclude_bands = 1-10

num_iter  = 0
conv_window = 5
conv_tol = 1.0d-10
!num_print_cycles = 10

dis_num_iter = 300
dis_win_max  =  17.0
dis_froz_max =  12.5
dis_froz_min = -10.0

begin atoms_frac
Ge            0.0000000000        0.0000000000        0.0000000000
Te            0.4688262167        0.4688262167        0.4688262167
end atoms_frac

begin projections
Ge:s,p
Te:s,p
end projections

begin unit_cell_cart
Bohr
 4.000115225564993e0 -2.309467602269305e0 6.879189619194109e0
 0.000000000000000e0  4.618935204537991e0 6.879189619194109e0
-4.000115225564993e0 -2.309467602269305e0 6.879189619194109e0
end unit_cell_cart

use_ws_distance = .true.
bands_plot = .true.
begin kpoint_path
GAMMA   0.00000   0.00000   0.00000    L       0.50000   0.00000   0.00000
L       0.50000   0.00000   0.00000    U       0.62910   0.62910   0.24180
U       0.62910   0.62910   0.24180    X       0.50000   0.50000   0.00000
X       0.50000   0.50000   0.00000    GAMMA   0.00000   0.00000   0.00000
GAMMA   0.00000   0.00000   0.00000    Z       0.50000   0.50000   0.50000
Z       0.50000   0.50000   0.50000    U       0.62910   0.62910   0.24180
end kpoint_path
bands_num_points = 100
bands_plot_format = gnuplot
bands_plot_mode = s-k

mp_grid =      3      3      3
begin kpoints
  0.000000000000  0.000000000000  0.000000000000
  0.000000000000  0.000000000000  0.333333333333
  0.000000000000  0.000000000000  0.666666666667
  0.000000000000  0.333333333333  0.000000000000
  0.000000000000  0.333333333333  0.333333333333
  0.000000000000  0.333333333333  0.666666666667
  0.000000000000  0.666666666667  0.000000000000
  0.000000000000  0.666666666667  0.333333333333
  0.000000000000  0.666666666667  0.666666666667
  0.333333333333  0.000000000000  0.000000000000
  0.333333333333  0.000000000000  0.333333333333
  0.333333333333  0.000000000000  0.666666666667
  0.333333333333  0.333333333333  0.000000000000
  0.333333333333  0.333333333333  0.333333333333
  0.333333333333  0.333333333333  0.666666666667
  0.333333333333  0.666666666667  0.000000000000
  0.333333333333  0.666666666667  0.333333333333
  0.333333333333  0.666666666667  0.666666666667
  0.666666666667  0.000000000000  0.000000000000
  0.666666666667  0.000000000000  0.333333333333
  0.666666666667  0.000000000000  0.666666666667
  0.666666666667  0.333333333333  0.000000000000
  0.666666666667  0.333333333333  0.333333333333
  0.666666666667  0.333333333333  0.666666666667
  0.666666666667  0.666666666667  0.000000000000
  0.666666666667  0.666666666667  0.333333333333
  0.666666666667  0.666666666667  0.666666666667
end kpoints
