&control
    calculation  = 'bands'
    prefix       = 'GeTe'
    pseudo_dir   = '/home/jmlim/PP/all/'
    outdir       = './temp/'
/
&system
    ibrav     = 5
    celldm(1) = 8.28600098
    celldm(4) = 0.53389363
    ntyp      = 2
    nat       = 2
    ecutwfc   = 70
    nbnd = 25
/
&electrons
   conv_thr = 1.d-10
/
ATOMIC_SPECIES
 Ge 72.61 Ge.dojo.sr.ONCVv0.4.pbe.standard.upf
 Te 127.6 Te.dojo.sr.ONCVv0.4.pbe.standard.upf
ATOMIC_POSITIONS crystal
Ge            0.0000000000        0.0000000000        0.0000000000
Te            0.4688262167        0.4688262167        0.4688262167
K_POINTS crystal
27
  0.000000000000  0.000000000000  0.000000000000  3.70370370e-02
  0.000000000000  0.000000000000  0.333333333333  3.70370370e-02
  0.000000000000  0.000000000000  0.666666666667  3.70370370e-02
  0.000000000000  0.333333333333  0.000000000000  3.70370370e-02
  0.000000000000  0.333333333333  0.333333333333  3.70370370e-02
  0.000000000000  0.333333333333  0.666666666667  3.70370370e-02
  0.000000000000  0.666666666667  0.000000000000  3.70370370e-02
  0.000000000000  0.666666666667  0.333333333333  3.70370370e-02
  0.000000000000  0.666666666667  0.666666666667  3.70370370e-02
  0.333333333333  0.000000000000  0.000000000000  3.70370370e-02
  0.333333333333  0.000000000000  0.333333333333  3.70370370e-02
  0.333333333333  0.000000000000  0.666666666667  3.70370370e-02
  0.333333333333  0.333333333333  0.000000000000  3.70370370e-02
  0.333333333333  0.333333333333  0.333333333333  3.70370370e-02
  0.333333333333  0.333333333333  0.666666666667  3.70370370e-02
  0.333333333333  0.666666666667  0.000000000000  3.70370370e-02
  0.333333333333  0.666666666667  0.333333333333  3.70370370e-02
  0.333333333333  0.666666666667  0.666666666667  3.70370370e-02
  0.666666666667  0.000000000000  0.000000000000  3.70370370e-02
  0.666666666667  0.000000000000  0.333333333333  3.70370370e-02
  0.666666666667  0.000000000000  0.666666666667  3.70370370e-02
  0.666666666667  0.333333333333  0.000000000000  3.70370370e-02
  0.666666666667  0.333333333333  0.333333333333  3.70370370e-02
  0.666666666667  0.333333333333  0.666666666667  3.70370370e-02
  0.666666666667  0.666666666667  0.000000000000  3.70370370e-02
  0.666666666667  0.666666666667  0.333333333333  3.70370370e-02
  0.666666666667  0.666666666667  0.666666666667  3.70370370e-02
