
num_bands         =   32
num_wann          =   18

dis_win_min       = -8.0d0
dis_win_max       = 70.0d0
dis_froz_min      = -8.0d0
dis_froz_max      =  30.0d0
dis_num_iter      =  500

num_iter          = 500
dis_mix_ratio = 1.0

bands_plot=T
write_tb= T
spinors = T
begin projections
Fe: s;p;d
end projections


begin kpoint_path
G 0.0000 0.0000 0.0000   H 0.500 -0.5000 -0.5000
H 0.500 -0.5000 -0.5000  P 0.7500 0.2500 -0.2500
P 0.7500 0.2500 -0.2500  N 0.5000 0.0000 -0.5000
N 0.5000 0.0000 -0.5000  G 0.0000 0.0000 0.000
end kpoint_path


begin unit_cell_cart
bohr
 2.71175  2.71175 2.71175
-2.71175  2.71175 2.71175
-2.71175 -2.71175 2.71175
end unit_cell_cart

begin atoms_frac
Fe  0.000  0.000  0.000
end atoms_frac

mp_grid           = 4 4 4 

begin kpoints
  0.00000000  0.00000000  0.00000000
  0.00000000  0.00000000  0.25000000
  0.00000000  0.00000000  0.50000000
  0.00000000  0.00000000  0.75000000
  0.00000000  0.25000000  0.00000000
  0.00000000  0.25000000  0.25000000
  0.00000000  0.25000000  0.50000000
  0.00000000  0.25000000  0.75000000
  0.00000000  0.50000000  0.00000000
  0.00000000  0.50000000  0.25000000
  0.00000000  0.50000000  0.50000000
  0.00000000  0.50000000  0.75000000
  0.00000000  0.75000000  0.00000000
  0.00000000  0.75000000  0.25000000
  0.00000000  0.75000000  0.50000000
  0.00000000  0.75000000  0.75000000
  0.25000000  0.00000000  0.00000000
  0.25000000  0.00000000  0.25000000
  0.25000000  0.00000000  0.50000000
  0.25000000  0.00000000  0.75000000
  0.25000000  0.25000000  0.00000000
  0.25000000  0.25000000  0.25000000
  0.25000000  0.25000000  0.50000000
  0.25000000  0.25000000  0.75000000
  0.25000000  0.50000000  0.00000000
  0.25000000  0.50000000  0.25000000
  0.25000000  0.50000000  0.50000000
  0.25000000  0.50000000  0.75000000
  0.25000000  0.75000000  0.00000000
  0.25000000  0.75000000  0.25000000
  0.25000000  0.75000000  0.50000000
  0.25000000  0.75000000  0.75000000
  0.50000000  0.00000000  0.00000000
  0.50000000  0.00000000  0.25000000
  0.50000000  0.00000000  0.50000000
  0.50000000  0.00000000  0.75000000
  0.50000000  0.25000000  0.00000000
  0.50000000  0.25000000  0.25000000
  0.50000000  0.25000000  0.50000000
  0.50000000  0.25000000  0.75000000
  0.50000000  0.50000000  0.00000000
  0.50000000  0.50000000  0.25000000
  0.50000000  0.50000000  0.50000000
  0.50000000  0.50000000  0.75000000
  0.50000000  0.75000000  0.00000000
  0.50000000  0.75000000  0.25000000
  0.50000000  0.75000000  0.50000000
  0.50000000  0.75000000  0.75000000
  0.75000000  0.00000000  0.00000000
  0.75000000  0.00000000  0.25000000
  0.75000000  0.00000000  0.50000000
  0.75000000  0.00000000  0.75000000
  0.75000000  0.25000000  0.00000000
  0.75000000  0.25000000  0.25000000
  0.75000000  0.25000000  0.50000000
  0.75000000  0.25000000  0.75000000
  0.75000000  0.50000000  0.00000000
  0.75000000  0.50000000  0.25000000
  0.75000000  0.50000000  0.50000000
  0.75000000  0.50000000  0.75000000
  0.75000000  0.75000000  0.00000000
  0.75000000  0.75000000  0.25000000
  0.75000000  0.75000000  0.50000000
  0.75000000  0.75000000  0.75000000
end kpoints
