&inputpp 
   outdir = './'
   prefix = 'Fe'
   seedname = 'Fe'
   write_mmn = .true.
   write_amn = .true.
   write_uHu = .true.
   write_spn = .true.
   write_sHu = .true.
   write_sIu = .true.
/
