Mn3Sn-Study of the manganese-rich end of the Mn-Sn sytem
1.0
        5.6700000763         0.0000000000         0.0000000000
       -2.8350000381         4.9103641055         0.0000000000
        0.0000000000         0.0000000000         4.5300002098
   Mn   Sn
    6    2
Direct
0.6666667	0.8333333	0
0.1666667	0.3333333	0
0.6666667	0.3333333	0
0.3333333	0.1666667	0.5
0.8333333	0.6666667	0.5
0.3333333	0.6666667	0.5
0.8333333	0.1666667	0.5
0.1666667	0.8333333	0
