dis_win_min  = -0.7d0
dis_win_max  = 15.0d0
dis_froz_min = -0.7d0
dis_froz_max =  8.0d0
dis_num_iter=5000
dis_conv_tol=1e-10
num_iter=0
num_print_cycles  = 10
bands_num_points = 100
bands_plot = .true.
!wannier_plot = .false.
!write_hr=T
write_tb=T
!write_xyz=T

Begin Kpoint_Path
L  0.5       0.0       0.5 A  0.0       0.0       0.5
A  0.0       0.0       0.5 G  0.0       0.0       0.0
G  0.0       0.0       0.0 K  0.333333  0.333333  0.0
K  0.333333  0.333333  0.0 M  0.5       0.0       0.0
M  0.5       0.0       0.0 G  0.0       0.0       0.0
End Kpoint_Path

num_bands = 160
num_wann=84
begin projections
Mn:s;d
Sn:p
end projections



spinors = .true.

begin unit_cell_cart
     5.6700001     0.0000000     0.0000000
    -2.8350000     4.9103641     0.0000000
     0.0000000     0.0000000     4.5300002
end unit_cell_cart

begin atoms_cart
Mn       1.4175003     4.0919699     0.0000000
Mn       0.0000003     1.6367879     0.0000000
Mn       2.8350003     1.6367879     0.0000000
Mn       1.4174997     0.8183942     2.2650001
Mn       2.8349998     3.2735762     2.2650001
Mn      -0.0000003     3.2735762     2.2650001
Sn       4.2524998     0.8183942     2.2650001
Sn      -1.4174997     4.0919699     0.0000000
end atoms_cart

mp_grid =     2     2     2

begin kpoints
      0.000000000000      0.000000000000      0.000000000000
      0.500000000000      0.000000000000      0.000000000000
      0.000000000000      0.500000000000      0.000000000000
      0.500000000000      0.500000000000      0.000000000000
      0.000000000000      0.000000000000      0.500000000000
      0.500000000000      0.000000000000      0.500000000000
      0.000000000000      0.500000000000      0.500000000000
      0.500000000000      0.500000000000      0.500000000000
end kpoints
