begin projections
f=0.00, 0.00, 0.00 : s # n = 4, l = 0
f=0.00, 0.00, 0.00 : s # n = 4, l = 1
f=0.00, 0.00, 0.00 : s # n = 4, l = 1
f=0.00, 0.00, 0.00 : s # n = 4, l = 1
f=0.00, 0.00, 0.00 : s # n = 3, l = 2
f=0.00, 0.00, 0.00 : s # n = 3, l = 2
f=0.00, 0.00, 0.00 : s # n = 3, l = 2
f=0.00, 0.00, 0.00 : s # n = 3, l = 2
f=0.00, 0.00, 0.00 : s # n = 3, l = 2
end projections

spinors = False
write_hr = True

num_bands       = 30

guiding_centres = True
num_wann        = 9
num_iter        = 100

fermi_energy  = 9.233
dis_froz_max  = 9.333
dis_num_iter  = 200
dis_mix_ratio = 0.5

begin unit_cell_cart
  1.4350000000   1.4350000000   1.4350000000
 -1.4350000000   1.4350000000   1.4350000000
 -1.4350000000  -1.4350000000   1.4350000000
end unit_cell_cart

begin atoms_frac
Fe  0.0000000000   0.0000000000   0.0000000000
end atoms_frac

mp_grid = 2 2 2

begin kpoints
  0.0000000000   0.0000000000   0.0000000000
  0.0000000000   0.0000000000   0.5000000000
  0.0000000000   0.5000000000   0.0000000000
  0.0000000000   0.5000000000   0.5000000000
  0.5000000000   0.0000000000   0.0000000000
  0.5000000000   0.0000000000   0.5000000000
  0.5000000000   0.5000000000   0.0000000000
  0.5000000000   0.5000000000   0.5000000000
end kpoints
