 &control
    calculation='nscf'
    pseudo_dir = '~/github/wannier90/pseudo/',
    outdir='./',
    prefix='di'
 /
 &system    
    ibrav=  2, celldm(1) =6.1, nat=  2, ntyp= 1,
    ecutwfc =40.0, nbnd = 10,
 /
 &electrons
    conv_thr =  1.0d-11
 /
ATOMIC_SPECIES
 C  12.0  C.pz-vbc.UPF
ATOMIC_POSITIONS {crystal}
C -0.125 -0.125 -0.125
C  0.125  0.125  0.125
K_POINTS {crystal}
8
  0.00000000  0.00000000  0.00000000  1.250000e-01
  0.00000000  0.00000000  0.50000000  1.250000e-01
  0.00000000  0.50000000  0.00000000  1.250000e-01
  0.00000000  0.50000000  0.50000000  1.250000e-01
  0.50000000  0.00000000  0.00000000  1.250000e-01
  0.50000000  0.00000000  0.50000000  1.250000e-01
  0.50000000  0.50000000  0.00000000  1.250000e-01
  0.50000000  0.50000000  0.50000000  1.250000e-01