 &control
    calculation='nscf'
    pseudo_dir = './pw_inputs',
    outdir='./',
    prefix='di-irred'
 /
 &system    
    ibrav=  2, celldm(1) =6.1, nat=  2, ntyp= 1,
    ecutwfc =40.0, nbnd = 10,
 /
 &electrons
    conv_thr =  1.0d-11
 /
ATOMIC_SPECIES
 C  12.0  C.pz-vbc.UPF
ATOMIC_POSITIONS {crystal}
C -0.125 -0.125 -0.125
C  0.125  0.125  0.125
K_POINTS {automatic}
 4 4 4 0 0 0
