 &control
    calculation='bands'
    restart_mode='from_scratch',
    pseudo_dir = '.',
    outdir='./'
    prefix='Fe'
 /
 &system
    ibrav = 3, celldm(1) =5.4235, nat= 1, ntyp= 1,
    ecutwfc =120.0
    lspinorb=.true.,
    noncolin=.true.,
    starting_magnetization(1) = -1,
    nbnd=50
    occupations='smearing', smearing='cold', degauss=0.02
     nosym=.true.
 /
 &electrons
    startingwfc='random'
    diagonalization='david'
    conv_thr=1.0e-10
 /
ATOMIC_SPECIES
 Fe 55.85 Fe.jry.pbe.UPF
ATOMIC_POSITIONS
 Fe 0.0 0.0 0.0
K_POINTS {crystal_b}
5
0.0000 0.0000 0.0000   20 #  G 
0.500 -0.5000 -0.5000  20 #  H 
0.7500 0.2500 -0.2500  20 #  P 
0.5000 0.0000 -0.5000  20 #  N 
0.0000 0.0000 0.000    20 #  G 

